122 5
10 10 10 10 10 

0 0 0 0 0 0 1 2 
0 0 0 0 0 0 5 3 4 5 7 8 
8 1 0 0 0 0 2 12 6 
6 2 0 0 0 0 4 12 11 10 9 
1 3 0 0 0 0 1 6 
10 4 0 0 0 0 3 11 10 9 
6 2 0 0 0 0 3 12 10 9 
3 2 0 0 0 0 3 11 10 9 
1 4 0 0 0 0 1 13 
8 3 0 0 0 0 1 13 
4 2 0 0 0 0 1 13 
6 2 0 0 0 0 1 13 
0 0 0 0 0 0 2 14 26 
0 0 0 0 0 0 5 15 16 17 18 20 
5 0 0 1 0 0 4 24 23 22 21 
4 0 0 2 0 0 3 24 22 21 
5 0 0 3 0 0 2 22 19 
2 0 0 3 0 0 1 19 
1 0 0 3 0 0 1 21 
6 0 0 1 0 0 2 23 79 
9 0 0 3 0 0 1 25 
1 0 0 4 0 0 1 25 
6 0 0 2 0 0 1 25 
9 0 0 3 0 0 1 25 
0 0 0 0 0 0 1 38 
0 0 0 0 0 0 4 27 28 29 32 
3 0 1 0 0 0 4 36 35 34 30 
4 0 3 0 0 0 3 36 31 30 
2 0 3 0 0 0 3 35 33 40 
5 0 3 0 0 0 1 33 
8 0 3 0 0 0 1 33 
4 0 1 0 0 0 1 34 
10 0 3 0 0 0 1 37 
9 0 3 0 0 0 1 37 
6 0 3 0 0 0 1 37 
8 0 2 0 0 0 1 37 
0 0 0 0 0 0 1 38 
0 0 0 0 0 0 5 39 51 63 75 87 
0 0 0 0 0 0 5 40 41 42 43 66 
7 0 0 0 0 1 4 49 48 45 44 
4 0 0 0 0 2 3 47 45 44 
4 0 0 0 0 2 2 48 45 
10 0 0 0 0 2 2 47 45 
9 0 0 0 0 2 1 46 
3 0 0 0 0 1 1 50 
10 0 0 0 0 3 1 50 
4 0 0 0 0 6 1 50 
5 0 0 0 0 3 1 50 
9 0 0 0 0 3 1 50 
0 0 0 0 0 0 1 99 
0 0 0 0 0 0 4 52 53 54 57 
2 0 1 0 0 0 3 61 56 55 
2 0 4 0 0 0 3 61 60 55 
4 0 2 0 0 0 2 56 55 
9 0 3 0 0 0 2 59 58 
6 0 2 0 0 0 2 60 59 
10 0 4 0 0 0 2 61 58 
4 0 2 0 0 0 2 62 89 
2 0 2 0 0 0 1 62 
7 0 2 0 0 0 1 62 
3 0 3 0 0 0 1 62 
0 0 0 0 0 0 1 99 
0 0 0 0 0 0 3 64 65 73 
2 0 0 0 1 0 4 72 71 67 66 
3 0 0 0 3 0 3 71 68 66 
7 0 0 0 2 0 2 70 69 
4 0 0 0 2 0 1 68 
2 0 0 0 5 0 1 74 
1 0 0 0 2 0 1 74 
5 0 0 0 4 0 1 74 
7 0 0 0 2 0 1 74 
10 0 0 0 1 0 1 74 
10 0 0 0 3 0 1 74 
0 0 0 0 0 0 1 99 
0 0 0 0 0 0 5 76 78 83 84 85 
10 0 1 0 0 0 3 82 80 77 
5 0 2 0 0 0 2 81 79 
7 0 2 0 0 0 2 80 79 
3 0 4 0 0 0 1 86 
6 0 3 0 0 0 1 86 
8 0 2 0 0 0 1 86 
10 0 1 0 0 0 1 86 
6 0 3 0 0 0 1 86 
8 0 3 0 0 0 1 86 
8 0 4 0 0 0 1 86 
0 0 0 0 0 0 1 99 
0 0 0 0 0 0 4 88 89 90 93 
10 0 1 0 0 0 3 95 92 91 
9 0 3 0 0 0 3 95 94 92 
4 0 5 0 0 0 3 96 95 94 
4 0 2 0 0 0 2 96 94 
7 0 3 0 0 0 1 97 
4 0 2 0 0 0 1 94 
6 0 2 0 0 0 1 98 
2 0 2 0 0 0 1 98 
5 0 2 0 0 0 1 98 
3 0 3 0 0 0 1 98 
0 0 0 0 0 0 1 99 
0 0 0 0 0 0 5 100 101 102 108 109 
2 0 1 0 0 0 4 107 105 104 103 
6 0 1 0 0 0 4 107 105 104 103 
4 0 5 0 0 0 1 103 
2 0 3 0 0 0 1 106 
8 0 2 0 0 0 1 106 
4 0 2 0 0 0 1 106 
9 0 6 0 0 0 1 110 
10 0 1 0 0 0 1 110 
5 0 3 0 0 0 1 110 
1 0 1 0 0 0 1 110 
0 0 0 0 0 0 1 111 
0 0 0 0 0 0 3 112 114 116 
3 0 0 0 0 1 4 121 119 115 113 
10 0 0 0 0 1 2 120 117 
3 0 0 0 0 2 2 119 118 
3 0 0 0 0 4 1 118 
4 0 0 0 0 3 1 117 
8 0 0 0 0 2 1 122 
10 0 0 0 0 2 1 122 
6 0 0 0 0 3 1 122 
8 0 0 0 0 4 1 122 
2 0 0 0 0 3 1 122 
0 0 0 0 0 0 0 
